c Generated map
c Size: 8 * 8, weights in range: 1 to 10, walls: True, with ratio 0.1
c dim 6 of 10
c
p sp 64 91
c graph contains 64 nodes and 91 arcs
c
a 1 9 9
a 9 1 9
a 3 11 6
a 11 3 6
a 3 4 9
a 4 3 9
a 4 12 3
a 12 4 3
a 4 5 10
a 5 4 10
a 5 13 10
a 13 5 10
a 5 6 2
a 6 5 2
a 6 14 1
a 14 6 1
a 6 7 4
a 7 6 4
a 7 15 1
a 15 7 1
a 7 8 6
a 8 7 6
a 8 16 3
a 16 8 3
a 9 17 4
a 17 9 4
a 9 10 1
a 10 9 1
a 10 18 10
a 18 10 10
a 10 11 3
a 11 10 3
a 11 19 4
a 19 11 4
a 11 12 7
a 12 11 7
a 12 13 1
a 13 12 1
a 13 21 7
a 21 13 7
a 13 14 2
a 14 13 2
a 14 15 3
a 15 14 3
a 15 23 5
a 23 15 5
a 15 16 7
a 16 15 7
a 16 24 4
a 24 16 4
a 17 25 4
a 25 17 4
a 17 18 1
a 18 17 1
a 18 26 4
a 26 18 4
a 18 19 8
a 19 18 8
a 19 27 6
a 27 19 6
a 21 29 3
a 29 21 3
a 23 31 10
a 31 23 10
a 23 24 3
a 24 23 3
a 24 32 6
a 32 24 6
a 25 33 8
a 33 25 8
a 25 26 9
a 26 25 9
a 26 34 8
a 34 26 8
a 26 27 9
a 27 26 9
a 27 35 6
a 35 27 6
a 27 28 2
a 28 27 2
a 28 29 6
a 29 28 6
a 29 37 4
a 37 29 4
a 29 30 5
a 30 29 5
a 30 31 6
a 31 30 6
a 31 39 8
a 39 31 8
a 31 32 2
a 32 31 2
a 32 40 1
a 40 32 1
a 33 41 5
a 41 33 5
a 33 34 2
a 34 33 2
a 34 42 1
a 42 34 1
a 34 35 2
a 35 34 2
a 35 43 1
a 43 35 1
a 37 45 1
a 45 37 1
a 39 47 5
a 47 39 5
a 39 40 8
a 40 39 8
a 40 48 10
a 48 40 10
a 41 49 10
a 49 41 10
a 41 42 1
a 42 41 1
a 42 50 8
a 50 42 8
a 42 43 8
a 43 42 8
a 43 51 8
a 51 43 8
a 43 44 1
a 44 43 1
a 44 52 8
a 52 44 8
a 44 45 10
a 45 44 10
a 45 53 10
a 53 45 10
a 45 46 3
a 46 45 3
a 46 54 4
a 54 46 4
a 46 47 7
a 47 46 7
a 47 55 4
a 55 47 4
a 47 48 9
a 48 47 9
a 48 56 4
a 56 48 4
a 49 50 8
a 50 49 8
a 50 58 8
a 58 50 8
a 50 51 10
a 51 50 10
a 51 59 6
a 59 51 6
a 51 52 7
a 52 51 7
a 52 60 5
a 60 52 5
a 52 53 2
a 53 52 2
a 53 61 5
a 61 53 5
a 53 54 10
a 54 53 10
a 54 62 8
a 62 54 8
a 54 55 2
a 55 54 2
a 55 63 9
a 63 55 9
a 55 56 8
a 56 55 8
a 56 64 5
a 64 56 5
a 58 59 6
a 59 58 6
a 59 60 7
a 60 59 7
a 60 61 2
a 61 60 2
a 61 62 6
a 62 61 6
a 62 63 9
a 63 62 9
a 63 64 2
a 64 63 2
